NAME: GRASP_50_9
TYPE: TSP
COMMENT: line_50_9
DIMENSION: 50
EDGE_WEIGHT_TYPE: EUC_2D
NODE_COORD_SECTION
1 1965 2198
2 3684 3610
3 3231 1113
4 2377 569
5 573 4154
6 982 855
7 4348 2063
8 3571 206
9 2639 1603
10 1250 3529
11 52 1610
12 3970 3906
13 749 3531
14 4252 4505
15 4410 385
16 2663 4146
17 4525 1812
18 4724 921
19 3611 4705
20 3055 229
21 2004 2018
22 3151 3002
23 1160 3412
24 2956 2371
25 2555 3578
26 3441 3584
27 4452 4923
28 2217 1558
29 1298 925
30 3712 3876
31 2680 3268
32 2852 27
33 975 4698
34 924 3307
35 3446 3350
36 2753 2372
37 2388 3427
38 182 3287
39 4504 3276
40 2151 833
41 666 1531
42 1741 1664
43 3010 4096
44 2093 3925
45 2063 4492
46 1521 3094
47 608 2121
48 1722 3010
49 3921 4218
50 1072 1854
